(set-logic QF_FPABV)
(declare-fun x () (_ FP 11 53))
(declare-fun y () (_ FP 11 53))
(define-fun .10 () (_ FP 11 53) ((_ asFloat 11 53) roundTowardZero 0.0))
(define-fun .18 () (_ FP 11 53) x)
(define-fun .19 () Bool (<= .10 .18))
(assert .19)
(define-fun .12 () (_ FP 11 53) ((_ asFloat 11 53) roundTowardZero 10.0))
(define-fun .20 () Bool (<= .18 .12))
(assert .20)
(define-fun .3 () RoundingMode roundNearestTiesToEven)
(define-fun .21 () (_ FP 11 53) y)
(define-fun .22 () (_ FP 11 53) (* .3 .18 .18))
(define-fun .23 () (_ FP 11 53) (* .3 .18 .22))
(define-fun .24 () (_ FP 11 53) (* .3 .18 .23))
(define-fun .25 () (_ FP 11 53) (* .3 .18 .24))
(define-fun .26 () Bool (== .21 .25))
(assert .26)
(define-fun .30 () (_ FP 11 53) ((_ asFloat 11 53) roundTowardZero 100000.0))
(define-fun .31 () Bool (< .30 .21))
(assert .31)
(check-sat)
